Set parameter WLSAccessID
Set parameter WLSSecret
Set parameter LicenseID to value 2604445
Academic license 2604445 - for non-commercial use only - registered to an___@um.edu.mt
Set parameter Seed to value 23
Set parameter TimeLimit to value 14400
Gurobi Optimizer version 12.0.2 build v12.0.2rc0 (linux64 - "Ubuntu 22.04.5 LTS")

CPU model: Intel(R) Core(TM) i5-10400 CPU @ 2.90GHz, instruction set [SSE2|AVX|AVX2]
Thread count: 6 physical cores, 12 logical processors, using up to 12 threads

Non-default parameters:
TimeLimit  14400
Seed  23

Academic license 2604445 - for non-commercial use only - registered to an___@um.edu.mt
Optimize a model with 2347390 rows, 45839 columns and 4832422 nonzeros
Model fingerprint: 0xc104b97c
Variable types: 0 continuous, 45839 integer (35707 binary)
Coefficient statistics:
  Matrix range     [1e+00, 4e+01]
  Objective range  [1e-06, 2e-02]
  Bounds range     [1e+00, 3e+02]
  RHS range        [1e+00, 4e+01]
Presolve removed 19835 rows and 15546 columns (presolve time = 5s)...
Presolve removed 19835 rows and 15546 columns (presolve time = 11s)...
Presolve removed 19835 rows and 15546 columns
Presolve time: 11.06s
Presolved: 2327555 rows, 30293 columns, 4757741 nonzeros
Variable types: 0 continuous, 30293 integer (21548 binary)
Deterministic concurrent LP optimizer: primal simplex, dual simplex, and barrier
Showing barrier log only...

Root barrier log...

Ordering time: 0.01s

Barrier statistics:
 Dense cols : 4
 Free vars  : 140
 AA' NZ     : 3.847e+04
 Factor NZ  : 5.542e+04 (roughly 30 MB of memory)
 Factor Ops : 8.208e+06 (less than 1 second per iteration)
 Threads    : 3

                  Objective                Residual
Iter       Primal          Dual         Primal    Dual     Compl     Time
   0  -6.89685757e+05  5.00000000e+00  3.32e+00 1.10e+01  2.71e+01    27s
   1  -2.97376368e+05  7.72492149e+00  1.66e-03 2.43e+01  6.61e+00    27s

Barrier performed 1 iterations in 26.76 seconds (21.39 work units)
Barrier solve interrupted - model solved by another algorithm

Concurrent spin time: 0.12s (can be avoided by choosing Method=3)

Solved with dual simplex

Root simplex log...

Iteration    Objective       Primal Inf.    Dual Inf.      Time
     963    2.7456586e-03   0.000000e+00   0.000000e+00     27s

Root simplex log...

Iteration    Objective       Primal Inf.    Dual Inf.      Time
     963    2.7456586e-03   0.000000e+00   0.000000e+00     27s

Use crossover to convert LP symmetric solution to basic solution...

Root crossover log...

      33 DPushes remaining with DInf 2.4209867e-04                29s

    3327 PPushes remaining with PInf 0.0000000e+00                30s
    3289 PPushes remaining with PInf 0.0000000e+00                30s
       0 PPushes remaining with PInf 0.0000000e+00                32s

  Push phase complete: Pinf 0.0000000e+00, Dinf 9.9569602e-05     32s


Root simplex log...

Iteration    Objective       Primal Inf.    Dual Inf.      Time
    4293    2.7456586e-03   0.000000e+00   9.956960e-05     33s
    4295    2.7456586e-03   0.000000e+00   0.000000e+00     33s
    4295    2.7456586e-03   0.000000e+00   0.000000e+00     34s

Root relaxation: objective 2.745659e-03, 4295 iterations, 14.36 seconds (4.23 work units)
Total elapsed time = 38.92s (DegenMoves)
Total elapsed time = 43.97s (DegenMoves)
Total elapsed time = 48.47s (DegenMoves)
Total elapsed time = 52.86s (DegenMoves)

    Nodes    |    Current Node    |     Objective Bounds      |     Work
 Expl Unexpl |  Obj  Depth IntInf | Incumbent    BestBd   Gap | It/Node Time

     0     0    0.00275    0 1875          -    0.00275      -     -   59s
     0     0    0.00300    0 3166          -    0.00300      -     -  125s
     0     0    0.00300    0 3089          -    0.00300      -     -  155s
     0     0    0.00306    0 2636          -    0.00306      -     -  273s
     0     0    0.00307    0 2569          -    0.00307      -     -  311s
     0     0    0.00327    0 4495          -    0.00327      -     -  478s
     0     0    0.00327    0 5051          -    0.00327      -     -  530s
     0     0    0.00357    0 5247          -    0.00357      -     -  709s
     0     0    0.00357    0 5686          -    0.00357      -     -  775s
     0     0    0.00363    0 5730          -    0.00363      -     -  954s
     0     0    0.00363    0 6509          -    0.00363      -     -  986s
     0     0    0.00363    0 7172          -    0.00363      -     - 1242s
     0     0    0.00363    0 6907          -    0.00363      -     - 1296s
     0     0    0.00369    0 6571          -    0.00369      -     - 1597s
     0     0    0.00369    0 7202          -    0.00369      -     - 1701s
     0     0    0.00374    0 7313          -    0.00374      -     - 2009s
     0     0    0.00374    0 7973          -    0.00374      -     - 2109s
     0     0    0.00378    0 5724          -    0.00378      -     - 2461s
     0     0    0.00378    0 6271          -    0.00378      -     - 2552s
     0     0    0.00378    0 8426          -    0.00378      -     - 2929s
     0     0    0.00378    0 6746          -    0.00378      -     - 3027s
     0     0    0.00379    0 6825          -    0.00379      -     - 3383s
     0     0    0.00379    0 6700          -    0.00379      -     - 3510s
     0     0    0.00382    0 7938          -    0.00382      -     - 3869s
     0     0    0.00383    0 7771          -    0.00383      -     - 4011s
     0     0    0.00389    0 10020          -    0.00389      -     - 4479s
     0     0    0.00390    0 8600          -    0.00390      -     - 4669s
     0     0    0.00397    0 7704          -    0.00397      -     - 5098s
     0     0    0.00397    0 8780          -    0.00397      -     - 5303s
     0     0    0.00404    0 9316          -    0.00404      -     - 5943s
     0     0    0.00407    0 8483          -    0.00407      -     - 6130s
     0     0    0.00409    0 6970          -    0.00409      -     - 6625s
     0     0    0.00410    0 8123          -    0.00410      -     - 6797s
     0     0    0.00413    0 7088          -    0.00413      -     - 7252s
     0     0    0.00413    0 8616          -    0.00413      -     - 7536s
     0     0    0.00415    0 8559          -    0.00415      -     - 8052s
     0     0    0.00415    0 8644          -    0.00415      -     - 8276s
     0     0    0.00415    0 7808          -    0.00415      -     - 8852s
     0     0    0.00415    0 8047          -    0.00415      -     - 9062s
     0     0    0.00416    0 6909          -    0.00416      -     - 9610s
     0     0    0.00416    0 8694          -    0.00416      -     - 9909s
     0     0    0.00416    0 7064          -    0.00416      -     - 10468s
     0     0    0.00417    0 7369          -    0.00417      -     - 10659s
     0     0    0.00417    0 8057          -    0.00417      -     - 11291s
     0     0    0.00418    0 8220          -    0.00418      -     - 11505s
     0     0    0.00418    0 8448          -    0.00418      -     - 11979s
     0     0    0.00418    0 8032          -    0.00418      -     - 12130s
     0     0    0.00418    0 7454          -    0.00418      -     - 12523s
     0     0    0.00418    0 7024          -    0.00418      -     - 12697s
     0     0    0.00419    0 9373          -    0.00419      -     - 13087s
     0     0    0.00419    0 8023          -    0.00419      -     - 13245s
     0     0    0.00419    0 7909          -    0.00419      -     - 13619s
     0     0    0.00419    0 8686          -    0.00419      -     - 13801s
     0     0    0.00422    0 7324          -    0.00422      -     - 14162s
     0     0    0.00422    0 7368          -    0.00422      -     - 14298s

Cutting planes:
  Gomory: 132
  Cover: 3098
  Implied bound: 1504
  Clique: 2535
  MIR: 6657
  StrongCG: 47
  Zero half: 2888
  RLT: 776
  Relax-and-lift: 1893

Explored 1 nodes (976354 simplex iterations) in 14400.07 seconds (20259.81 work units)
Thread count was 12 (of 12 available processors)

Solution count 0

Time limit reached
Best objective -, best bound 4.217406529326e-03, gap -
No feasible solution found.
